(set-logic QF_S)
(declare-fun var0 () String)
(assert (str.in.re var0 (re.++ (re.union (re.union (str.to.re "000") (str.to.re "1")) (re.union (str.to.re "2") (str.to.re "33"))) (re.++ (re.+ (re.union (str.to.re "44") (str.to.re "5"))) (re.++ (re.* (re.* (str.to.re "6"))) (re.++ (re.* (re.+ (str.to.re "77"))) (re.++ (re.+ (re.union (str.to.re "88") (str.to.re "9"))) (re.++ (re.+ (re.union (str.to.re "aaa") (str.to.re "bb"))) (re.++ (re.union (re.union (str.to.re "ccc") (str.to.re "ddd")) (re.union (str.to.re "e") (str.to.re "f"))) (re.++ (re.* (re.union (str.to.re "ggg") (str.to.re "hhh"))) (re.++ (re.union (re.+ (str.to.re "iii")) (re.+ (str.to.re "j"))) (re.++ (re.* (re.* (str.to.re "k"))) (re.++ (re.* (re.union (str.to.re "ll") (str.to.re "mm"))) (re.++ (re.* (re.+ (str.to.re "n"))) (re.++ (re.* (re.union (str.to.re "ooo") (str.to.re "pp"))) (re.++ (re.* (re.union (str.to.re "qq") (str.to.re "r"))) (re.++ (re.* (re.union (str.to.re "sss") (str.to.re "ttt"))) (re.++ (re.* (re.+ (str.to.re "uu"))) (re.++ (re.union (re.union (str.to.re "v") (str.to.re "www")) (re.union (str.to.re "xx") (str.to.re "y"))) (re.++ (re.union (re.+ (str.to.re "z")) (re.+ (str.to.re "AA"))) (re.++ (re.union (re.union (str.to.re "B") (str.to.re "CCC")) (re.union (str.to.re "D") (str.to.re "EE"))) (re.++ (re.+ (re.* (str.to.re "FFF"))) (re.++ (re.union (re.* (str.to.re "GG")) (re.* (str.to.re "HH"))) (re.++ (re.+ (re.+ (str.to.re "I"))) (re.++ (re.+ (re.* (str.to.re "J"))) (re.++ (re.* (re.+ (str.to.re "KKK"))) (re.++ (re.union (re.+ (str.to.re "LL")) (re.+ (str.to.re "M"))) (re.++ (re.+ (re.* (str.to.re "NN"))) (re.++ (re.+ (re.union (str.to.re "O") (str.to.re "PP"))) (re.++ (re.* (re.+ (str.to.re "QQ"))) (re.++ (re.* (re.* (str.to.re "RR"))) (re.++ (re.union (re.union (str.to.re "SS") (str.to.re "TTT")) (re.union (str.to.re "U") (str.to.re "V"))) (re.++ (re.* (re.union (str.to.re "W") (str.to.re "XXX"))) (re.++ (re.+ (re.union (str.to.re "Y") (str.to.re "ZZ"))) (re.++ (re.+ (re.+ (str.to.re "!"))) (re.++ (re.union (re.+ (str.to.re """")) (re.+ (str.to.re "##"))) (re.++ (re.* (re.* (str.to.re "$$"))) (re.++ (re.* (re.+ (str.to.re "%%%"))) (re.++ (re.* (re.union (str.to.re "&&&") (str.to.re "'"))) (re.++ (re.* (re.union (str.to.re "(") (str.to.re "))"))) (re.++ (re.+ (re.union (str.to.re "*") (str.to.re "+"))) (re.++ (re.union (re.* (str.to.re ",,")) (re.* (str.to.re "-"))) (re.++ (re.+ (re.* (str.to.re "..."))) (re.++ (re.* (re.union (str.to.re "///") (str.to.re ":"))) (re.++ (re.* (re.* (str.to.re ";;"))) (re.++ (re.+ (re.+ (str.to.re "<"))) (re.++ (re.union (re.* (str.to.re "===")) (re.* (str.to.re ">>"))) (re.++ (re.+ (re.union (str.to.re "??") (str.to.re "@@@"))) (re.++ (re.* (re.union (str.to.re "[[") (str.to.re "\\\\\\"))) (re.++ (re.* (re.union (str.to.re "]]") (str.to.re "^^"))) (re.++ (re.* (re.* (str.to.re "_"))) (re.++ (re.+ (re.+ (str.to.re "`"))) (re.++ (re.union (re.+ (str.to.re "{{")) (re.+ (str.to.re "|"))) (re.++ (re.* (re.union (str.to.re "}}}") (str.to.re "~~"))) (re.++ (re.+ (re.* (str.to.re "00"))) (re.++ (re.union (re.+ (str.to.re "1")) (re.+ (str.to.re "222"))) (re.++ (re.+ (re.union (str.to.re "3") (str.to.re "444"))) (re.++ (re.* (re.+ (str.to.re "5"))) (re.++ (re.union (re.+ (str.to.re "6")) (re.+ (str.to.re "777"))) (re.++ (re.+ (re.+ (str.to.re "8"))) (re.++ (re.* (re.* (str.to.re "9"))) (re.++ (re.union (re.union (str.to.re "aaa") (str.to.re "bbb")) (re.union (str.to.re "cc") (str.to.re "dd"))) (re.union (re.* (str.to.re "eee")) (re.* (str.to.re "f")))))))))))))))))))))))))))))))))))))))))))))))))))))))))))))))))
(assert (not (str.in.re var0 (re.++ (re.union (re.* (str.to.re "00")) (re.* (str.to.re "111"))) (re.++ (re.* (re.union (str.to.re "22") (str.to.re "33"))) (re.++ (re.+ (re.+ (str.to.re "44"))) (re.++ (re.* (re.+ (str.to.re "555"))) (re.++ (re.* (re.union (str.to.re "6") (str.to.re "77"))) (re.++ (re.+ (re.* (str.to.re "8"))) (re.++ (re.* (re.union (str.to.re "9") (str.to.re "a"))) (re.++ (re.union (re.* (str.to.re "bb")) (re.* (str.to.re "c"))) (re.++ (re.+ (re.+ (str.to.re "ddd"))) (re.++ (re.+ (re.union (str.to.re "ee") (str.to.re "ff"))) (re.++ (re.+ (re.+ (str.to.re "gg"))) (re.++ (re.+ (re.+ (str.to.re "hh"))) (re.++ (re.+ (re.* (str.to.re "iii"))) (re.++ (re.+ (re.union (str.to.re "jjj") (str.to.re "kk"))) (re.++ (re.* (re.+ (str.to.re "ll"))) (re.++ (re.union (re.+ (str.to.re "mmm")) (re.+ (str.to.re "n"))) (re.++ (re.union (re.union (str.to.re "ooo") (str.to.re "pp")) (re.union (str.to.re "q") (str.to.re "r"))) (re.++ (re.* (re.* (str.to.re "s"))) (re.++ (re.* (re.* (str.to.re "t"))) (re.++ (re.+ (re.union (str.to.re "u") (str.to.re "v"))) (re.++ (re.union (re.union (str.to.re "w") (str.to.re "xx")) (re.union (str.to.re "y") (str.to.re "z"))) (re.++ (re.* (re.* (str.to.re "A"))) (re.++ (re.+ (re.union (str.to.re "BB") (str.to.re "CC"))) (re.++ (re.+ (re.+ (str.to.re "DDD"))) (re.++ (re.+ (re.union (str.to.re "EEE") (str.to.re "FFF"))) (re.++ (re.+ (re.union (str.to.re "G") (str.to.re "HH"))) (re.++ (re.+ (re.+ (str.to.re "II"))) (re.++ (re.union (re.union (str.to.re "JJJ") (str.to.re "K")) (re.union (str.to.re "L") (str.to.re "M"))) (re.++ (re.+ (re.* (str.to.re "NNN"))) (re.++ (re.+ (re.union (str.to.re "O") (str.to.re "P"))) (re.++ (re.+ (re.+ (str.to.re "QQQ"))) (re.++ (re.* (re.+ (str.to.re "RR"))) (re.++ (re.union (re.union (str.to.re "SS") (str.to.re "T")) (re.union (str.to.re "U") (str.to.re "VVV"))) (re.++ (re.+ (re.union (str.to.re "W") (str.to.re "XXX"))) (re.++ (re.* (re.union (str.to.re "Y") (str.to.re "ZZ"))) (re.++ (re.+ (re.+ (str.to.re "!"))) (re.++ (re.* (re.+ (str.to.re """"))) (re.++ (re.+ (re.* (str.to.re "##"))) (re.++ (re.* (re.* (str.to.re "$$$"))) (re.++ (re.+ (re.+ (str.to.re "%"))) (re.++ (re.union (re.* (str.to.re "&&")) (re.* (str.to.re "''"))) (re.++ (re.+ (re.+ (str.to.re "(("))) (re.++ (re.+ (re.+ (str.to.re ")"))) (re.++ (re.+ (re.* (str.to.re "*"))) (re.++ (re.+ (re.* (str.to.re "+++"))) (re.++ (re.+ (re.* (str.to.re ","))) (re.++ (re.+ (re.+ (str.to.re "-"))) (re.++ (re.+ (re.union (str.to.re "...") (str.to.re "/"))) (re.++ (re.union (re.* (str.to.re ":")) (re.* (str.to.re ";;"))) (re.++ (re.+ (re.union (str.to.re "<<<") (str.to.re "==="))) (re.++ (re.union (re.+ (str.to.re ">>")) (re.+ (str.to.re "???"))) (re.++ (re.union (re.+ (str.to.re "@")) (re.+ (str.to.re "[[["))) (re.++ (re.union (re.* (str.to.re "\\")) (re.* (str.to.re "]]"))) (re.++ (re.* (re.union (str.to.re "^^^") (str.to.re "_"))) (re.++ (re.* (re.+ (str.to.re "`"))) (re.++ (re.* (re.* (str.to.re "{{{"))) (re.++ (re.union (re.+ (str.to.re "|||")) (re.+ (str.to.re "}}"))) (re.++ (re.+ (re.* (str.to.re "~~"))) (re.++ (re.union (re.* (str.to.re "00")) (re.* (str.to.re "11"))) (re.++ (re.union (re.* (str.to.re "22")) (re.* (str.to.re "33"))) (re.union (re.+ (str.to.re "44")) (re.+ (str.to.re "55"))))))))))))))))))))))))))))))))))))))))))))))))))))))))))))))))))
(check-sat)